81
15
0 15 16 17 20 21 28 29 34 35 37 40 41 45 47 48 51 53 56 57 58 59 60 61 62 65 67 68 71 72 73 77 78 80
1 15 16 17 19 20 23 24 25 26 27 28 29 32 35 38 39 40 41 46 47 48 51 52 53 56 58 59 60 61 65 66 67 68 69 70 71 72 73 75 76 77 80
2 15 17 19 20 21 22 24 26 29 30 33 34 37 38 40 44 45 46 47 48 50 51 52 53 56 58 59 60 61 65 66 67 68 69 70 71 72 73 75 77
3 15 16 17 18 19 20 27 29 32 33 35 37 38 39 41 42 50 52 53 56 57 58 59 60 61 66 67 68 69 71 72 75 77
4 15 17 19 23 26 27 29 30 32 34 38 39 45 46 48 50 52 53 54 56 57 58 59 62 63 65 69 71 73 75 77 80
5 15 16 24 27 28 35 37 38 41 44 45 46 47 49 50 51 52 56 57 58 59 60 61 64 65 67 69 72 75 76 80
6 15 18 20 21 24 27 29 30 32 33 35 38 41 44 45 46 47 48 49 50 51 61 65 68 70 71 74 75 78
7 15 16 17 18 19 20 21 23 24 27 29 30 33 37 38 39 41 45 46 48 50 53 56 57 58 60 61 65 67 69 70 71 73 74 75 76
8 16 18 19 24 26 27 28 29 32 33 35 39 41 47 48 50 51 55 58 61 62 65 68 70 71 74 77 80
9 17 22 25 29 32 34 37 38 43 50 52 56 58 67 72 74 76 77 79
10 16 26 28 30 31 32 38 39 40 45 47 48 53 56 57 63 65 67 69 72 73 75 78
11 15 17 18 22 26 28 32 33 35 37 43 46 58 59 60 80
12 15 16 19 24 25 28 40 48 53 67 69 70 72 78
13 26 36 69 72 74
14 15 17 18 62 75 77
